(declare-const |phi_tmp___1:32:34:81:90| Int)
(declare-const |havoc:11:30:79:88| Int)
(declare-const |havoc:9:24:73:82| Int)
(declare-const |phi_tmp___1:23:31:33:80:89| Int)
(declare-const |havoc:6:19:29:78:87| Int)
(declare-const havoc Int)
(declare-const |havoc:2| Int)
(declare-const |phi_z:21:26:75:84| Int)
(declare-const |havoc:7:20:28:77:86| Int)
(declare-const |havoc:8:27:76:85| Int)
(declare-const |phi_x:22:25:74:83| Int)
(assert (and (< (+ (- havoc) -100) 0) (< (+ havoc -200) 0)
               (< (+ (- |havoc:2|) 100) 0) (< (+ |havoc:2| -200) 0)
               (or (and (= |havoc:9:24:73:82| 0)
                          (= (+ (- |phi_x:22:25:74:83|) havoc) 0)
                          (= (+ (- |phi_z:21:26:75:84|) |havoc:2|) 0))
                     (and (not (= |havoc:8:27:76:85| 0))
                            (= (+ |havoc:7:20:28:77:86|
                                    (- |phi_x:22:25:74:83|)) 0)
                            (= (+ |havoc:6:19:29:78:87|
                                    (- |phi_z:21:26:75:84|)) 0)))
               (= |havoc:11:30:79:88| 0)
               (or (and (< (+ |phi_x:22:25:74:83| -100) 0)
                          (or (and (< (+ (- |phi_z:21:26:75:84|) 100) 0)
                                     (= (- |phi_tmp___1:23:31:33:80:89|) 0))
                                (and (<= (+ |phi_z:21:26:75:84| -100) 0)
                                       (= (+ (- |phi_tmp___1:23:31:33:80:89|)
                                               1) 0)))
                          (= (+ (- |phi_tmp___1:32:34:81:90|)
                                  |phi_tmp___1:23:31:33:80:89|) 0))
                     (and (<= (+ (- |phi_x:22:25:74:83|) 100) 0)
                            (= (+ (- |phi_tmp___1:32:34:81:90|) 1) 0)))
               (= |phi_tmp___1:32:34:81:90| 0)))
(check-sat)
